
%FILE DATA:	Soccer Computational Problem for MiniZinc Models	%
%AUTHOR:	Jack Wall	%
%CONTACT:  	116397063@umail.ucc.ie			%
%LAST UPDATE:	02/19/2020, 12:16:33						%
%DESCRIPTION: 	60 games played with 30 games left				%


n=10; %number of teams

%Games to play
games=[|3,8|1,10|2,9|5,9|7,8|7,6|6,9|10,4|9,2|3,7|10,6|1,2|9,1|3,10|8,10|9,6|3,5|2,10|5,1|7,2|10,3|10,1|3,1|8,5|6,10|2,1|3,6|4,5|8,9|8,6|];

%Initial points
iPoints=[23,23,10,28,19,14,7,17,17,10];

%POSITION CONSTRAINTS
% [|teamID, operator, position|...]
% operators index:
%  1 for =  operator
%  2 for >  operator
%  3 for >= operator
%  4 for <  operator
%  5 for <= operator
positionConstraints=[|1,5,1|4,5,2|5,4,4|2,1,4|];